184 21 192 110 102 57 127 28 190 196 198 107 128 35 175 158 74 66 131 197 6 111 73 194 100 189 120 45 145 124 108 60 170 126 75 160 134 71 56 30 98 77 193 79 156 133 68 106 183 157 151 15 62 153 53 90 76 42 154 63 149 58 5 39 82 2 115 101 8 9 141 19 24 163 113 17 84 142 188 95 85 159 64 173 44 165 32 67 13 186 81 182 103 105 114 11 27 46 132 181 20 55 150 94 147 130 162 25 86 112 54 177 144 135 116 91 140 47 1 143 29 99 118 50 191 18 195 36 34 61 117 4 176 123 52 59 43 92 3 70 121 122 187 38 72 14 171 136 83 40 146 78 180 12 178 87 164 23 26 179 119 137 51 7 65 37 185 148 33 80 129 174 0 155 199 125 49 168 161 93 31 104 96 166 97 169 48 138 69 152 88 139 16 89 10 167 109 22 41 172